
  22   10
  10   10   10   10   10   10   10   10   10   10

   0   0   0   0   0   0   0   0   0   0   0   4 2 4 8 9 
   7   0   0  10   0   0   0   0   0   0   0   2 6 3 
   7   0   0   0   0   0  10   0   0   0   0   2 16 5 
   1   0   0  10   0   0   0   0   0   0   0   1 5 
   7   0  10   0   0   0   0   0   0   0   0   3 12 10 7 
   7   0   0   0   0   0   0   0   0   0  10   3 16 13 11 
   6   0  10   0   0   0   0   0   0   0   0   5 20 17 15 14 13 
   1   0   0   0   0   0  10   0   0   0   0   2 15 10 
  10   0   0   0   0   0   0   0  10   0   0   1 11 
   7  10   0   0   0   0   0   0   0   0   0   3 20 14 13 
   1   0  10   0   0   0   0   0   0   0   0   1 12 
   8   0   0   0   0   0   0   0   0  10   0   3 20 17 15 
   8   0  10   0   0   0   0   0   0   0   0   3 21 19 18 
   7   0   0   0   0   0  10   0   0   0   0   3 21 19 18 
  10  10   0   0   0   0   0   0   0   0   0   2 19 18 
   2   0   0   0  10   0   0   0   0   0   0   2 19 18 
   3   0  10   0   0   0   0   0   0   0   0   1 18 
   7   0   0   0   0  10   0   0   0   0   0   1 22
  10   0   0   0   0  10   0   0   0   0   0   1 22
   3   0   0   0   0   0  10   0   0   0   0   1 22
   7   0   0   0   0   0   0  10   0   0   0   1 22
   0   0   0   0   0   0   0   0   0   0   0   0 
